p cnf 120 1096
1 2 3 0
4 5 6 0
7 8 9 0
10 11 12 0
13 14 15 0
16 17 18 0
19 20 21 0
22 23 24 0
25 26 27 0
28 29 30 0
31 32 33 0
34 35 36 0
37 38 39 0
40 41 42 0
43 44 45 0
46 47 48 0
49 50 51 0
52 53 54 0
55 56 57 0
58 59 60 0
61 62 63 0
64 65 66 0
67 68 69 0
70 71 72 0
73 74 75 0
76 77 78 0
79 80 81 0
82 83 84 0
85 86 87 0
88 89 90 0
91 92 93 0
94 95 96 0
97 98 99 0
100 101 102 0
103 104 105 0
106 107 108 0
109 110 111 0
112 113 114 0
115 116 117 0
118 119 120 0
-1 -2 0
-1 -3 0
-2 -3 0
-4 -5 0
-4 -6 0
-5 -6 0
-7 -8 0
-7 -9 0
-8 -9 0
-10 -11 0
-10 -12 0
-11 -12 0
-13 -14 0
-13 -15 0
-14 -15 0
-16 -17 0
-16 -18 0
-17 -18 0
-19 -20 0
-19 -21 0
-20 -21 0
-22 -23 0
-22 -24 0
-23 -24 0
-25 -26 0
-25 -27 0
-26 -27 0
-28 -29 0
-28 -30 0
-29 -30 0
-31 -32 0
-31 -33 0
-32 -33 0
-34 -35 0
-34 -36 0
-35 -36 0
-37 -38 0
-37 -39 0
-38 -39 0
-40 -41 0
-40 -42 0
-41 -42 0
-43 -44 0
-43 -45 0
-44 -45 0
-46 -47 0
-46 -48 0
-47 -48 0
-49 -50 0
-49 -51 0
-50 -51 0
-52 -53 0
-52 -54 0
-53 -54 0
-55 -56 0
-55 -57 0
-56 -57 0
-58 -59 0
-58 -60 0
-59 -60 0
-61 -62 0
-61 -63 0
-62 -63 0
-64 -65 0
-64 -66 0
-65 -66 0
-67 -68 0
-67 -69 0
-68 -69 0
-70 -71 0
-70 -72 0
-71 -72 0
-73 -74 0
-73 -75 0
-74 -75 0
-76 -77 0
-76 -78 0
-77 -78 0
-79 -80 0
-79 -81 0
-80 -81 0
-82 -83 0
-82 -84 0
-83 -84 0
-85 -86 0
-85 -87 0
-86 -87 0
-88 -89 0
-88 -90 0
-89 -90 0
-91 -92 0
-91 -93 0
-92 -93 0
-94 -95 0
-94 -96 0
-95 -96 0
-97 -98 0
-97 -99 0
-98 -99 0
-100 -101 0
-100 -102 0
-101 -102 0
-103 -104 0
-103 -105 0
-104 -105 0
-106 -107 0
-106 -108 0
-107 -108 0
-109 -110 0
-109 -111 0
-110 -111 0
-112 -113 0
-112 -114 0
-113 -114 0
-115 -116 0
-115 -117 0
-116 -117 0
-118 -119 0
-118 -120 0
-119 -120 0
-1 -7 0
-2 -8 0
-3 -9 0
-1 -13 0
-2 -14 0
-3 -15 0
-1 -25 0
-2 -26 0
-3 -27 0
-1 -34 0
-2 -35 0
-3 -36 0
-1 -40 0
-2 -41 0
-3 -42 0
-1 -43 0
-2 -44 0
-3 -45 0
-1 -55 0
-2 -56 0
-3 -57 0
-1 -70 0
-2 -71 0
-3 -72 0
-1 -76 0
-2 -77 0
-3 -78 0
-1 -85 0
-2 -86 0
-3 -87 0
-1 -88 0
-2 -89 0
-3 -90 0
-1 -97 0
-2 -98 0
-3 -99 0
-1 -100 0
-2 -101 0
-3 -102 0
-1 -103 0
-2 -104 0
-3 -105 0
-1 -109 0
-2 -110 0
-3 -111 0
-1 -115 0
-2 -116 0
-3 -117 0
-1 -118 0
-2 -119 0
-3 -120 0
-4 -7 0
-5 -8 0
-6 -9 0
-4 -16 0
-5 -17 0
-6 -18 0
-4 -31 0
-5 -32 0
-6 -33 0
-4 -37 0
-5 -38 0
-6 -39 0
-4 -46 0
-5 -47 0
-6 -48 0
-4 -49 0
-5 -50 0
-6 -51 0
-4 -52 0
-5 -53 0
-6 -54 0
-4 -61 0
-5 -62 0
-6 -63 0
-4 -67 0
-5 -68 0
-6 -69 0
-4 -85 0
-5 -86 0
-6 -87 0
-4 -88 0
-5 -89 0
-6 -90 0
-4 -106 0
-5 -107 0
-6 -108 0
-7 -19 0
-8 -20 0
-9 -21 0
-7 -37 0
-8 -38 0
-9 -39 0
-7 -49 0
-8 -50 0
-9 -51 0
-7 -58 0
-8 -59 0
-9 -60 0
-7 -64 0
-8 -65 0
-9 -66 0
-7 -70 0
-8 -71 0
-9 -72 0
-7 -73 0
-8 -74 0
-9 -75 0
-7 -97 0
-8 -98 0
-9 -99 0
-7 -100 0
-8 -101 0
-9 -102 0
-7 -106 0
-8 -107 0
-9 -108 0
-7 -109 0
-8 -110 0
-9 -111 0
-10 -22 0
-11 -23 0
-12 -24 0
-10 -31 0
-11 -32 0
-12 -33 0
-10 -34 0
-11 -35 0
-12 -36 0
-10 -37 0
-11 -38 0
-12 -39 0
-10 -40 0
-11 -41 0
-12 -42 0
-10 -43 0
-11 -44 0
-12 -45 0
-10 -46 0
-11 -47 0
-12 -48 0
-10 -52 0
-11 -53 0
-12 -54 0
-10 -55 0
-11 -56 0
-12 -57 0
-10 -61 0
-11 -62 0
-12 -63 0
-10 -64 0
-11 -65 0
-12 -66 0
-10 -67 0
-11 -68 0
-12 -69 0
-10 -73 0
-11 -74 0
-12 -75 0
-10 -79 0
-11 -80 0
-12 -81 0
-10 -91 0
-11 -92 0
-12 -93 0
-10 -94 0
-11 -95 0
-12 -96 0
-10 -109 0
-11 -110 0
-12 -111 0
-10 -115 0
-11 -116 0
-12 -117 0
-10 -118 0
-11 -119 0
-12 -120 0
-13 -19 0
-14 -20 0
-15 -21 0
-13 -55 0
-14 -56 0
-15 -57 0
-13 -58 0
-14 -59 0
-15 -60 0
-13 -64 0
-14 -65 0
-15 -66 0
-13 -79 0
-14 -80 0
-15 -81 0
-13 -82 0
-14 -83 0
-15 -84 0
-13 -88 0
-14 -89 0
-15 -90 0
-13 -91 0
-14 -92 0
-15 -93 0
-13 -103 0
-14 -104 0
-15 -105 0
-13 -112 0
-14 -113 0
-15 -114 0
-16 -19 0
-17 -20 0
-18 -21 0
-16 -22 0
-17 -23 0
-18 -24 0
-16 -25 0
-17 -26 0
-18 -27 0
-16 -28 0
-17 -29 0
-18 -30 0
-16 -37 0
-17 -38 0
-18 -39 0
-16 -43 0
-17 -44 0
-18 -45 0
-16 -46 0
-17 -47 0
-18 -48 0
-16 -55 0
-17 -56 0
-18 -57 0
-16 -67 0
-17 -68 0
-18 -69 0
-16 -97 0
-17 -98 0
-18 -99 0
-16 -100 0
-17 -101 0
-18 -102 0
-19 -28 0
-20 -29 0
-21 -30 0
-19 -46 0
-20 -47 0
-21 -48 0
-19 -49 0
-20 -50 0
-21 -51 0
-19 -64 0
-20 -65 0
-21 -66 0
-19 -76 0
-20 -77 0
-21 -78 0
-19 -79 0
-20 -80 0
-21 -81 0
-19 -82 0
-20 -83 0
-21 -84 0
-19 -88 0
-20 -89 0
-21 -90 0
-19 -94 0
-20 -95 0
-21 -96 0
-19 -109 0
-20 -110 0
-21 -111 0
-19 -115 0
-20 -116 0
-21 -117 0
-22 -25 0
-23 -26 0
-24 -27 0
-22 -40 0
-23 -41 0
-24 -42 0
-22 -46 0
-23 -47 0
-24 -48 0
-22 -49 0
-23 -50 0
-24 -51 0
-22 -55 0
-23 -56 0
-24 -57 0
-22 -70 0
-23 -71 0
-24 -72 0
-22 -73 0
-23 -74 0
-24 -75 0
-22 -79 0
-23 -80 0
-24 -81 0
-22 -88 0
-23 -89 0
-24 -90 0
-22 -100 0
-23 -101 0
-24 -102 0
-22 -106 0
-23 -107 0
-24 -108 0
-22 -115 0
-23 -116 0
-24 -117 0
-25 -37 0
-26 -38 0
-27 -39 0
-25 -40 0
-26 -41 0
-27 -42 0
-25 -43 0
-26 -44 0
-27 -45 0
-25 -55 0
-26 -56 0
-27 -57 0
-25 -58 0
-26 -59 0
-27 -60 0
-25 -64 0
-26 -65 0
-27 -66 0
-25 -67 0
-26 -68 0
-27 -69 0
-25 -70 0
-26 -71 0
-27 -72 0
-25 -76 0
-26 -77 0
-27 -78 0
-25 -82 0
-26 -83 0
-27 -84 0
-25 -100 0
-26 -101 0
-27 -102 0
-25 -103 0
-26 -104 0
-27 -105 0
-25 -109 0
-26 -110 0
-27 -111 0
-25 -118 0
-26 -119 0
-27 -120 0
-28 -34 0
-29 -35 0
-30 -36 0
-28 -46 0
-29 -47 0
-30 -48 0
-28 -55 0
-29 -56 0
-30 -57 0
-28 -64 0
-29 -65 0
-30 -66 0
-28 -67 0
-29 -68 0
-30 -69 0
-28 -70 0
-29 -71 0
-30 -72 0
-28 -73 0
-29 -74 0
-30 -75 0
-28 -76 0
-29 -77 0
-30 -78 0
-28 -82 0
-29 -83 0
-30 -84 0
-28 -85 0
-29 -86 0
-30 -87 0
-28 -91 0
-29 -92 0
-30 -93 0
-28 -94 0
-29 -95 0
-30 -96 0
-28 -97 0
-29 -98 0
-30 -99 0
-28 -106 0
-29 -107 0
-30 -108 0
-28 -109 0
-29 -110 0
-30 -111 0
-28 -115 0
-29 -116 0
-30 -117 0
-28 -118 0
-29 -119 0
-30 -120 0
-31 -37 0
-32 -38 0
-33 -39 0
-31 -43 0
-32 -44 0
-33 -45 0
-31 -52 0
-32 -53 0
-33 -54 0
-31 -55 0
-32 -56 0
-33 -57 0
-31 -58 0
-32 -59 0
-33 -60 0
-31 -67 0
-32 -68 0
-33 -69 0
-31 -76 0
-32 -77 0
-33 -78 0
-31 -79 0
-32 -80 0
-33 -81 0
-31 -106 0
-32 -107 0
-33 -108 0
-31 -109 0
-32 -110 0
-33 -111 0
-31 -112 0
-32 -113 0
-33 -114 0
-34 -37 0
-35 -38 0
-36 -39 0
-34 -55 0
-35 -56 0
-36 -57 0
-34 -64 0
-35 -65 0
-36 -66 0
-34 -73 0
-35 -74 0
-36 -75 0
-34 -79 0
-35 -80 0
-36 -81 0
-34 -82 0
-35 -83 0
-36 -84 0
-34 -85 0
-35 -86 0
-36 -87 0
-34 -94 0
-35 -95 0
-36 -96 0
-34 -100 0
-35 -101 0
-36 -102 0
-34 -103 0
-35 -104 0
-36 -105 0
-34 -106 0
-35 -107 0
-36 -108 0
-34 -109 0
-35 -110 0
-36 -111 0
-37 -43 0
-38 -44 0
-39 -45 0
-37 -52 0
-38 -53 0
-39 -54 0
-37 -58 0
-38 -59 0
-39 -60 0
-37 -64 0
-38 -65 0
-39 -66 0
-37 -70 0
-38 -71 0
-39 -72 0
-37 -76 0
-38 -77 0
-39 -78 0
-37 -97 0
-38 -98 0
-39 -99 0
-37 -106 0
-38 -107 0
-39 -108 0
-37 -112 0
-38 -113 0
-39 -114 0
-40 -43 0
-41 -44 0
-42 -45 0
-40 -46 0
-41 -47 0
-42 -48 0
-40 -52 0
-41 -53 0
-42 -54 0
-40 -61 0
-41 -62 0
-42 -63 0
-40 -76 0
-41 -77 0
-42 -78 0
-40 -91 0
-41 -92 0
-42 -93 0
-40 -100 0
-41 -101 0
-42 -102 0
-40 -106 0
-41 -107 0
-42 -108 0
-40 -115 0
-41 -116 0
-42 -117 0
-40 -118 0
-41 -119 0
-42 -120 0
-43 -46 0
-44 -47 0
-45 -48 0
-43 -52 0
-44 -53 0
-45 -54 0
-43 -55 0
-44 -56 0
-45 -57 0
-43 -70 0
-44 -71 0
-45 -72 0
-43 -76 0
-44 -77 0
-45 -78 0
-43 -94 0
-44 -95 0
-45 -96 0
-43 -97 0
-44 -98 0
-45 -99 0
-43 -112 0
-44 -113 0
-45 -114 0
-46 -49 0
-47 -50 0
-48 -51 0
-46 -70 0
-47 -71 0
-48 -72 0
-46 -73 0
-47 -74 0
-48 -75 0
-46 -76 0
-47 -77 0
-48 -78 0
-46 -79 0
-47 -80 0
-48 -81 0
-46 -82 0
-47 -83 0
-48 -84 0
-46 -88 0
-47 -89 0
-48 -90 0
-46 -91 0
-47 -92 0
-48 -93 0
-46 -97 0
-47 -98 0
-48 -99 0
-46 -100 0
-47 -101 0
-48 -102 0
-46 -103 0
-47 -104 0
-48 -105 0
-46 -112 0
-47 -113 0
-48 -114 0
-46 -115 0
-47 -116 0
-48 -117 0
-46 -118 0
-47 -119 0
-48 -120 0
-49 -52 0
-50 -53 0
-51 -54 0
-49 -55 0
-50 -56 0
-51 -57 0
-49 -64 0
-50 -65 0
-51 -66 0
-49 -70 0
-50 -71 0
-51 -72 0
-49 -73 0
-50 -74 0
-51 -75 0
-49 -79 0
-50 -80 0
-51 -81 0
-49 -85 0
-50 -86 0
-51 -87 0
-49 -100 0
-50 -101 0
-51 -102 0
-49 -103 0
-50 -104 0
-51 -105 0
-49 -109 0
-50 -110 0
-51 -111 0
-49 -112 0
-50 -113 0
-51 -114 0
-52 -64 0
-53 -65 0
-54 -66 0
-52 -70 0
-53 -71 0
-54 -72 0
-52 -73 0
-53 -74 0
-54 -75 0
-52 -76 0
-53 -77 0
-54 -78 0
-52 -88 0
-53 -89 0
-54 -90 0
-52 -97 0
-53 -98 0
-54 -99 0
-52 -100 0
-53 -101 0
-54 -102 0
-52 -106 0
-53 -107 0
-54 -108 0
-52 -109 0
-53 -110 0
-54 -111 0
-52 -112 0
-53 -113 0
-54 -114 0
-52 -118 0
-53 -119 0
-54 -120 0
-55 -79 0
-56 -80 0
-57 -81 0
-55 -82 0
-56 -83 0
-57 -84 0
-55 -85 0
-56 -86 0
-57 -87 0
-55 -88 0
-56 -89 0
-57 -90 0
-55 -91 0
-56 -92 0
-57 -93 0
-55 -103 0
-56 -104 0
-57 -105 0
-55 -109 0
-56 -110 0
-57 -111 0
-55 -118 0
-56 -119 0
-57 -120 0
-58 -64 0
-59 -65 0
-60 -66 0
-58 -70 0
-59 -71 0
-60 -72 0
-58 -73 0
-59 -74 0
-60 -75 0
-58 -79 0
-59 -80 0
-60 -81 0
-58 -85 0
-59 -86 0
-60 -87 0
-58 -88 0
-59 -89 0
-60 -90 0
-58 -91 0
-59 -92 0
-60 -93 0
-58 -94 0
-59 -95 0
-60 -96 0
-58 -100 0
-59 -101 0
-60 -102 0
-58 -103 0
-59 -104 0
-60 -105 0
-58 -109 0
-59 -110 0
-60 -111 0
-58 -112 0
-59 -113 0
-60 -114 0
-58 -118 0
-59 -119 0
-60 -120 0
-61 -67 0
-62 -68 0
-63 -69 0
-61 -73 0
-62 -74 0
-63 -75 0
-61 -82 0
-62 -83 0
-63 -84 0
-61 -88 0
-62 -89 0
-63 -90 0
-61 -97 0
-62 -98 0
-63 -99 0
-61 -100 0
-62 -101 0
-63 -102 0
-61 -103 0
-62 -104 0
-63 -105 0
-61 -115 0
-62 -116 0
-63 -117 0
-64 -85 0
-65 -86 0
-66 -87 0
-64 -100 0
-65 -101 0
-66 -102 0
-64 -103 0
-65 -104 0
-66 -105 0
-64 -115 0
-65 -116 0
-66 -117 0
-67 -76 0
-68 -77 0
-69 -78 0
-67 -79 0
-68 -80 0
-69 -81 0
-67 -82 0
-68 -83 0
-69 -84 0
-67 -100 0
-68 -101 0
-69 -102 0
-67 -103 0
-68 -104 0
-69 -105 0
-67 -109 0
-68 -110 0
-69 -111 0
-67 -118 0
-68 -119 0
-69 -120 0
-70 -79 0
-71 -80 0
-72 -81 0
-70 -82 0
-71 -83 0
-72 -84 0
-70 -94 0
-71 -95 0
-72 -96 0
-70 -100 0
-71 -101 0
-72 -102 0
-70 -103 0
-71 -104 0
-72 -105 0
-70 -109 0
-71 -110 0
-72 -111 0
-70 -112 0
-71 -113 0
-72 -114 0
-70 -115 0
-71 -116 0
-72 -117 0
-73 -88 0
-74 -89 0
-75 -90 0
-73 -91 0
-74 -92 0
-75 -93 0
-73 -94 0
-74 -95 0
-75 -96 0
-73 -97 0
-74 -98 0
-75 -99 0
-73 -100 0
-74 -101 0
-75 -102 0
-73 -118 0
-74 -119 0
-75 -120 0
-76 -88 0
-77 -89 0
-78 -90 0
-76 -97 0
-77 -98 0
-78 -99 0
-79 -91 0
-80 -92 0
-81 -93 0
-79 -94 0
-80 -95 0
-81 -96 0
-79 -100 0
-80 -101 0
-81 -102 0
-79 -103 0
-80 -104 0
-81 -105 0
-79 -112 0
-80 -113 0
-81 -114 0
-79 -115 0
-80 -116 0
-81 -117 0
-79 -118 0
-80 -119 0
-81 -120 0
-82 -85 0
-83 -86 0
-84 -87 0
-82 -91 0
-83 -92 0
-84 -93 0
-82 -97 0
-83 -98 0
-84 -99 0
-82 -100 0
-83 -101 0
-84 -102 0
-82 -106 0
-83 -107 0
-84 -108 0
-82 -112 0
-83 -113 0
-84 -114 0
-85 -88 0
-86 -89 0
-87 -90 0
-85 -103 0
-86 -104 0
-87 -105 0
-85 -106 0
-86 -107 0
-87 -108 0
-85 -118 0
-86 -119 0
-87 -120 0
-88 -91 0
-89 -92 0
-90 -93 0
-88 -94 0
-89 -95 0
-90 -96 0
-88 -97 0
-89 -98 0
-90 -99 0
-88 -100 0
-89 -101 0
-90 -102 0
-88 -103 0
-89 -104 0
-90 -105 0
-91 -97 0
-92 -98 0
-93 -99 0
-91 -103 0
-92 -104 0
-93 -105 0
-91 -112 0
-92 -113 0
-93 -114 0
-91 -115 0
-92 -116 0
-93 -117 0
-91 -118 0
-92 -119 0
-93 -120 0
-94 -97 0
-95 -98 0
-96 -99 0
-94 -106 0
-95 -107 0
-96 -108 0
-94 -118 0
-95 -119 0
-96 -120 0
-100 -109 0
-101 -110 0
-102 -111 0
-100 -115 0
-101 -116 0
-102 -117 0
-103 -106 0
-104 -107 0
-105 -108 0
-103 -109 0
-104 -110 0
-105 -111 0
-103 -115 0
-104 -116 0
-105 -117 0
-106 -115 0
-107 -116 0
-108 -117 0
